75
1 0 2
2 0 3
2 1 3
3 0 1
3 1 1
3 2 4
4 0 3
4 1 4
4 2 3
4 3 1
5 0 4
5 1 2
5 2 1
5 3 1
5 4 2
6 0 3
6 1 2
6 2 3
6 3 3
6 4 4
6 5 2
7 0 4
7 1 2
7 2 2
7 3 5
7 4 3
7 5 1
7 6 1
8 0 3
8 1 2
8 2 2
8 3 5
8 4 4
8 5 1
8 6 1
8 7 3
9 0 5
9 1 3
9 2 3
9 3 2
9 4 4
9 5 4
9 6 5
9 7 2
9 8 1
10 0 5
10 1 3
10 2 3
10 3 4
10 4 2
10 5 5
10 6 4
10 7 4
10 8 3
10 9 2
11 0 4
11 1 5
11 2 4
11 3 3
11 4 5
11 5 2
11 6 4
11 7 5
11 8 5
11 9 3
11 10 1
12 0 2
12 1 4
12 2 4
12 3 4
12 4 4
12 5 5
12 6 1
12 7 2
12 8 5
12 9 5
12 10 1
12 11 4
13 0 4
13 1 4
13 2 3
13 3 2
13 4 2
13 5 3
13 6 2
13 7 4
13 8 5
13 9 1
13 10 3
13 11 3
13 12 5
14 0 4
14 1 3
14 2 5
14 3 5
14 4 1
14 5 3
14 6 1
14 7 4
14 8 5
14 9 5
14 10 2
14 11 3
14 12 4
14 13 5
15 0 5
15 1 3
15 2 1
15 3 1
15 4 5
15 5 1
15 6 2
15 7 1
15 8 3
15 9 3
15 10 4
15 11 5
15 12 1
15 13 3
15 14 2
16 0 1
16 1 4
16 2 2
16 3 3
16 4 2
16 5 4
16 6 5
16 7 2
16 8 3
16 9 5
16 10 5
16 11 5
16 12 4
16 13 5
16 14 1
16 15 4
17 0 4
17 1 3
17 2 3
17 3 5
17 4 1
17 5 2
17 6 3
17 7 5
17 8 2
17 9 5
17 10 5
17 11 2
17 12 2
17 13 5
17 14 3
17 15 3
17 16 1
18 0 1
18 1 4
18 2 5
18 3 5
18 4 3
18 5 4
18 6 5
18 7 2
18 8 4
18 9 2
18 10 4
18 11 4
18 12 3
18 13 3
18 14 2
18 15 1
18 16 4
18 17 4
19 0 5
19 1 1
19 2 4
19 3 2
19 4 5
19 5 3
19 6 1
19 7 4
19 8 4
19 9 5
19 10 2
19 11 1
19 12 5
19 13 1
19 14 2
19 15 2
19 16 4
19 17 1
19 18 1
20 0 4
20 1 2
20 2 1
20 3 1
20 4 4
20 5 3
20 6 1
20 7 4
20 8 5
20 9 2
20 10 3
20 11 5
20 12 3
20 13 5
20 14 5
20 15 3
20 16 1
20 17 1
20 18 4
20 19 5
21 0 3
21 1 1
21 2 3
21 3 5
21 4 4
21 5 5
21 6 4
21 7 2
21 8 4
21 9 4
21 10 5
21 11 3
21 12 4
21 13 5
21 14 2
21 15 1
21 16 2
21 17 3
21 18 1
21 19 2
21 20 1
22 0 5
22 1 1
22 2 5
22 3 3
22 4 2
22 5 3
22 6 1
22 7 3
22 8 2
22 9 1
22 10 3
22 11 4
22 12 5
22 13 2
22 14 2
22 15 5
22 16 1
22 17 1
22 18 3
22 19 4
22 20 4
22 21 1
23 0 2
23 1 2
23 2 5
23 3 1
23 4 5
23 5 3
23 6 4
23 7 2
23 8 5
23 9 5
23 10 4
23 11 1
23 12 3
23 13 2
23 14 1
23 15 3
23 16 3
23 17 4
23 18 4
23 19 3
23 20 5
23 21 3
23 22 4
24 0 5
24 1 5
24 2 2
24 3 2
24 4 5
24 5 2
24 6 1
24 7 1
24 8 4
24 9 3
24 10 1
24 11 2
24 12 2
24 13 3
24 14 2
24 15 3
24 16 3
24 17 1
24 18 2
24 19 5
24 20 1
24 21 5
24 22 5
24 23 1
25 0 3
25 1 3
25 2 1
25 3 2
25 4 3
25 5 2
25 6 2
25 7 5
25 8 4
25 9 3
25 10 2
25 11 2
25 12 5
25 13 3
25 14 5
25 15 1
25 16 1
25 17 4
25 18 2
25 19 1
25 20 2
25 21 1
25 22 5
25 23 3
25 24 4
26 0 5
26 1 2
26 2 3
26 3 1
26 4 5
26 5 3
26 6 5
26 7 2
26 8 4
26 9 2
26 10 2
26 11 3
26 12 1
26 13 3
26 14 1
26 15 5
26 16 4
26 17 3
26 18 3
26 19 4
26 20 1
26 21 1
26 22 1
26 23 3
26 24 2
26 25 4
27 0 1
27 1 2
27 2 4
27 3 1
27 4 2
27 5 1
27 6 3
27 7 4
27 8 4
27 9 1
27 10 3
27 11 1
27 12 3
27 13 2
27 14 2
27 15 3
27 16 4
27 17 5
27 18 4
27 19 5
27 20 2
27 21 3
27 22 2
27 23 4
27 24 3
27 25 2
27 26 2
28 0 2
28 1 1
28 2 5
28 3 1
28 4 4
28 5 3
28 6 5
28 7 3
28 8 5
28 9 5
28 10 3
28 11 3
28 12 5
28 13 4
28 14 4
28 15 2
28 16 3
28 17 5
28 18 4
28 19 2
28 20 5
28 21 2
28 22 1
28 23 2
28 24 5
28 25 1
28 26 4
28 27 4
29 0 3
29 1 2
29 2 3
29 3 2
29 4 1
29 5 3
29 6 4
29 7 4
29 8 3
29 9 2
29 10 2
29 11 2
29 12 5
29 13 2
29 14 3
29 15 3
29 16 3
29 17 4
29 18 3
29 19 2
29 20 1
29 21 4
29 22 1
29 23 4
29 24 3
29 25 2
29 26 3
29 27 1
29 28 3
30 0 2
30 1 3
30 2 1
30 3 2
30 4 5
30 5 3
30 6 5
30 7 4
30 8 1
30 9 3
30 10 3
30 11 1
30 12 2
30 13 2
30 14 3
30 15 4
30 16 3
30 17 4
30 18 3
30 19 3
30 20 5
30 21 3
30 22 1
30 23 5
30 24 1
30 25 4
30 26 3
30 27 4
30 28 1
30 29 2
31 0 1
31 1 3
31 2 5
31 3 3
31 4 3
31 5 1
31 6 4
31 7 4
31 8 4
31 9 3
31 10 1
31 11 3
31 12 1
31 13 5
31 14 4
31 15 3
31 16 1
31 17 5
31 18 4
31 19 5
31 20 2
31 21 1
31 22 2
31 23 4
31 24 2
31 25 5
31 26 4
31 27 1
31 28 5
31 29 5
31 30 2
32 0 3
32 1 1
32 2 3
32 3 4
32 4 3
32 5 1
32 6 1
32 7 2
32 8 4
32 9 4
32 10 1
32 11 2
32 12 1
32 13 2
32 14 4
32 15 2
32 16 5
32 17 5
32 18 4
32 19 3
32 20 1
32 21 3
32 22 1
32 23 4
32 24 5
32 25 4
32 26 1
32 27 2
32 28 3
32 29 1
32 30 3
32 31 3
33 0 2
33 1 1
33 2 4
33 3 2
33 4 1
33 5 3
33 6 5
33 7 5
33 8 3
33 9 5
33 10 4
33 11 3
33 12 1
33 13 3
33 14 2
33 15 4
33 16 4
33 17 5
33 18 1
33 19 5
33 20 4
33 21 2
33 22 2
33 23 4
33 24 2
33 25 3
33 26 3
33 27 1
33 28 3
33 29 5
33 30 3
33 31 2
33 32 2
34 0 4
34 1 1
34 2 1
34 3 3
34 4 2
34 5 1
34 6 2
34 7 4
34 8 3
34 9 4
34 10 1
34 11 3
34 12 5
34 13 5
34 14 5
34 15 1
34 16 1
34 17 5
34 18 3
34 19 4
34 20 4
34 21 4
34 22 4
34 23 5
34 24 2
34 25 4
34 26 2
34 27 3
34 28 5
34 29 5
34 30 1
34 31 3
34 32 2
34 33 3
35 0 4
35 1 5
35 2 4
35 3 1
35 4 1
35 5 2
35 6 5
35 7 1
35 8 5
35 9 1
35 10 3
35 11 3
35 12 4
35 13 1
35 14 1
35 15 3
35 16 2
35 17 4
35 18 3
35 19 1
35 20 5
35 21 5
35 22 1
35 23 5
35 24 5
35 25 5
35 26 5
35 27 1
35 28 5
35 29 2
35 30 5
35 31 1
35 32 1
35 33 2
35 34 4
36 0 1
36 1 3
36 2 1
36 3 3
36 4 2
36 5 1
36 6 1
36 7 5
36 8 5
36 9 3
36 10 2
36 11 4
36 12 4
36 13 2
36 14 3
36 15 5
36 16 5
36 17 2
36 18 2
36 19 5
36 20 4
36 21 3
36 22 1
36 23 1
36 24 2
36 25 5
36 26 3
36 27 2
36 28 5
36 29 5
36 30 3
36 31 2
36 32 4
36 33 4
36 34 5
36 35 2
37 0 2
37 1 5
37 2 5
37 3 4
37 4 2
37 5 5
37 6 4
37 7 3
37 8 4
37 9 3
37 10 4
37 11 5
37 12 5
37 13 1
37 14 3
37 15 5
37 16 4
37 17 4
37 18 5
37 19 4
37 20 1
37 21 4
37 22 1
37 23 4
37 24 4
37 25 2
37 26 5
37 27 2
37 28 4
37 29 3
37 30 5
37 31 1
37 32 2
37 33 1
37 34 1
37 35 3
37 36 4
38 0 3
38 1 1
38 2 1
38 3 2
38 4 4
38 5 1
38 6 2
38 7 5
38 8 2
38 9 1
38 10 5
38 11 3
38 12 3
38 13 5
38 14 1
38 15 1
38 16 1
38 17 3
38 18 3
38 19 4
38 20 3
38 21 3
38 22 3
38 23 3
38 24 5
38 25 4
38 26 3
38 27 4
38 28 5
38 29 4
38 30 3
38 31 5
38 32 1
38 33 3
38 34 4
38 35 1
38 36 2
38 37 1
39 0 4
39 1 4
39 2 3
39 3 5
39 4 2
39 5 4
39 6 5
39 7 5
39 8 5
39 9 3
39 10 3
39 11 2
39 12 5
39 13 1
39 14 3
39 15 4
39 16 2
39 17 5
39 18 2
39 19 2
39 20 1
39 21 5
39 22 5
39 23 1
39 24 5
39 25 1
39 26 3
39 27 4
39 28 4
39 29 2
39 30 3
39 31 4
39 32 2
39 33 1
39 34 4
39 35 3
39 36 5
39 37 3
39 38 5
40 0 5
40 1 4
40 2 5
40 3 1
40 4 4
40 5 3
40 6 1
40 7 1
40 8 4
40 9 3
40 10 5
40 11 1
40 12 2
40 13 5
40 14 2
40 15 2
40 16 2
40 17 1
40 18 2
40 19 2
40 20 4
40 21 1
40 22 2
40 23 4
40 24 4
40 25 3
40 26 1
40 27 5
40 28 2
40 29 5
40 30 2
40 31 3
40 32 1
40 33 2
40 34 4
40 35 5
40 36 5
40 37 1
40 38 2
40 39 3
41 0 3
41 1 2
41 2 1
41 3 5
41 4 5
41 5 4
41 6 2
41 7 3
41 8 4
41 9 4
41 10 5
41 11 3
41 12 5
41 13 5
41 14 1
41 15 5
41 16 1
41 17 2
41 18 4
41 19 1
41 20 5
41 21 1
41 22 1
41 23 4
41 24 2
41 25 2
41 26 4
41 27 3
41 28 2
41 29 1
41 30 2
41 31 2
41 32 5
41 33 2
41 34 1
41 35 4
41 36 2
41 37 5
41 38 1
41 39 4
41 40 1
42 0 2
42 1 1
42 2 5
42 3 2
42 4 2
42 5 2
42 6 3
42 7 4
42 8 3
42 9 4
42 10 2
42 11 5
42 12 4
42 13 4
42 14 4
42 15 1
42 16 4
42 17 4
42 18 4
42 19 1
42 20 2
42 21 3
42 22 5
42 23 3
42 24 2
42 25 3
42 26 5
42 27 5
42 28 2
42 29 4
42 30 3
42 31 2
42 32 5
42 33 3
42 34 2
42 35 4
42 36 2
42 37 4
42 38 4
42 39 1
42 40 3
42 41 1
43 0 3
43 1 3
43 2 3
43 3 5
43 4 4
43 5 4
43 6 3
43 7 4
43 8 3
43 9 2
43 10 4
43 11 2
43 12 2
43 13 2
43 14 3
43 15 2
43 16 5
43 17 4
43 18 1
43 19 2
43 20 2
43 21 2
43 22 3
43 23 5
43 24 3
43 25 2
43 26 4
43 27 2
43 28 5
43 29 5
43 30 3
43 31 1
43 32 2
43 33 1
43 34 3
43 35 4
43 36 3
43 37 1
43 38 2
43 39 3
43 40 5
43 41 2
43 42 2
44 0 5
44 1 5
44 2 3
44 3 3
44 4 5
44 5 3
44 6 4
44 7 3
44 8 3
44 9 5
44 10 5
44 11 1
44 12 3
44 13 1
44 14 5
44 15 1
44 16 1
44 17 4
44 18 3
44 19 5
44 20 3
44 21 2
44 22 2
44 23 2
44 24 5
44 25 3
44 26 4
44 27 2
44 28 3
44 29 5
44 30 5
44 31 5
44 32 2
44 33 3
44 34 3
44 35 2
44 36 5
44 37 5
44 38 5
44 39 4
44 40 3
44 41 5
44 42 5
44 43 5
45 0 3
45 1 5
45 2 1
45 3 5
45 4 1
45 5 5
45 6 3
45 7 2
45 8 1
45 9 1
45 10 4
45 11 4
45 12 1
45 13 5
45 14 2
45 15 4
45 16 3
45 17 3
45 18 4
45 19 5
45 20 5
45 21 1
45 22 3
45 23 5
45 24 1
45 25 3
45 26 2
45 27 5
45 28 1
45 29 2
45 30 4
45 31 3
45 32 2
45 33 5
45 34 5
45 35 3
45 36 2
45 37 1
45 38 3
45 39 1
45 40 1
45 41 3
45 42 4
45 43 3
45 44 3
46 0 3
46 1 4
46 2 1
46 3 4
46 4 1
46 5 5
46 6 5
46 7 2
46 8 1
46 9 4
46 10 5
46 11 2
46 12 4
46 13 2
46 14 2
46 15 2
46 16 4
46 17 4
46 18 1
46 19 4
46 20 3
46 21 3
46 22 2
46 23 2
46 24 2
46 25 5
46 26 2
46 27 2
46 28 5
46 29 1
46 30 2
46 31 4
46 32 2
46 33 4
46 34 5
46 35 2
46 36 2
46 37 5
46 38 1
46 39 4
46 40 2
46 41 5
46 42 1
46 43 2
46 44 3
46 45 4
47 0 4
47 1 4
47 2 5
47 3 2
47 4 1
47 5 5
47 6 2
47 7 2
47 8 4
47 9 5
47 10 2
47 11 4
47 12 3
47 13 2
47 14 2
47 15 4
47 16 1
47 17 1
47 18 4
47 19 4
47 20 1
47 21 4
47 22 4
47 23 2
47 24 1
47 25 2
47 26 4
47 27 1
47 28 4
47 29 4
47 30 5
47 31 1
47 32 3
47 33 4
47 34 1
47 35 3
47 36 3
47 37 3
47 38 1
47 39 1
47 40 1
47 41 3
47 42 1
47 43 1
47 44 4
47 45 1
47 46 5
48 0 1
48 1 4
48 2 3
48 3 2
48 4 5
48 5 4
48 6 5
48 7 2
48 8 3
48 9 2
48 10 1
48 11 4
48 12 4
48 13 4
48 14 5
48 15 5
48 16 3
48 17 4
48 18 1
48 19 5
48 20 5
48 21 3
48 22 1
48 23 4
48 24 3
48 25 2
48 26 2
48 27 1
48 28 4
48 29 4
48 30 1
48 31 3
48 32 1
48 33 5
48 34 4
48 35 1
48 36 4
48 37 3
48 38 3
48 39 3
48 40 4
48 41 2
48 42 1
48 43 3
48 44 5
48 45 1
48 46 5
48 47 3
49 0 4
49 1 3
49 2 2
49 3 3
49 4 5
49 5 1
49 6 1
49 7 1
49 8 3
49 9 5
49 10 2
49 11 2
49 12 1
49 13 5
49 14 1
49 15 1
49 16 4
49 17 1
49 18 5
49 19 4
49 20 4
49 21 3
49 22 1
49 23 5
49 24 5
49 25 1
49 26 3
49 27 2
49 28 1
49 29 4
49 30 4
49 31 4
49 32 1
49 33 3
49 34 3
49 35 4
49 36 1
49 37 1
49 38 1
49 39 1
49 40 2
49 41 2
49 42 1
49 43 3
49 44 1
49 45 3
49 46 4
49 47 1
49 48 2
50 0 5
50 1 3
50 2 1
50 3 4
50 4 4
50 5 4
50 6 2
50 7 1
50 8 3
50 9 2
50 10 5
50 11 2
50 12 2
50 13 3
50 14 4
50 15 5
50 16 4
50 17 2
50 18 3
50 19 1
50 20 4
50 21 5
50 22 1
50 23 2
50 24 4
50 25 4
50 26 2
50 27 3
50 28 2
50 29 1
50 30 4
50 31 5
50 32 2
50 33 5
50 34 4
50 35 1
50 36 5
50 37 1
50 38 1
50 39 5
50 40 5
50 41 3
50 42 5
50 43 5
50 44 4
50 45 1
50 46 3
50 47 3
50 48 1
50 49 4
51 0 4
51 1 1
51 2 2
51 3 3
51 4 4
51 5 4
51 6 4
51 7 1
51 8 5
51 9 5
51 10 4
51 11 4
51 12 5
51 13 3
51 14 3
51 15 5
51 16 1
51 17 2
51 18 1
51 19 3
51 20 5
51 21 1
51 22 5
51 23 3
51 24 4
51 25 4
51 26 2
51 27 5
51 28 5
51 29 5
51 30 1
51 31 3
51 32 2
51 33 4
51 34 4
51 35 4
51 36 1
51 37 3
51 38 1
51 39 4
51 40 1
51 41 5
51 42 4
51 43 3
51 44 3
51 45 1
51 46 2
51 47 5
51 48 3
51 49 1
51 50 3
52 0 5
52 1 1
52 2 4
52 3 4
52 4 4
52 5 4
52 6 5
52 7 3
52 8 3
52 9 3
52 10 4
52 11 4
52 12 1
52 13 1
52 14 2
52 15 2
52 16 5
52 17 5
52 18 1
52 19 5
52 20 3
52 21 4
52 22 2
52 23 1
52 24 3
52 25 4
52 26 1
52 27 3
52 28 3
52 29 2
52 30 4
52 31 1
52 32 4
52 33 1
52 34 5
52 35 1
52 36 3
52 37 3
52 38 3
52 39 5
52 40 2
52 41 5
52 42 3
52 43 5
52 44 5
52 45 4
52 46 5
52 47 5
52 48 5
52 49 3
52 50 2
52 51 5
53 0 2
53 1 4
53 2 3
53 3 2
53 4 4
53 5 1
53 6 4
53 7 3
53 8 4
53 9 4
53 10 5
53 11 2
53 12 4
53 13 2
53 14 4
53 15 4
53 16 4
53 17 5
53 18 5
53 19 2
53 20 1
53 21 1
53 22 5
53 23 2
53 24 3
53 25 1
53 26 3
53 27 4
53 28 3
53 29 4
53 30 1
53 31 4
53 32 2
53 33 5
53 34 2
53 35 5
53 36 5
53 37 2
53 38 3
53 39 4
53 40 5
53 41 2
53 42 3
53 43 3
53 44 5
53 45 5
53 46 4
53 47 2
53 48 4
53 49 2
53 50 2
53 51 1
53 52 1
54 0 5
54 1 3
54 2 2
54 3 3
54 4 4
54 5 2
54 6 1
54 7 1
54 8 1
54 9 4
54 10 5
54 11 2
54 12 5
54 13 4
54 14 4
54 15 3
54 16 1
54 17 5
54 18 5
54 19 3
54 20 1
54 21 1
54 22 5
54 23 1
54 24 5
54 25 2
54 26 3
54 27 3
54 28 3
54 29 1
54 30 3
54 31 2
54 32 3
54 33 3
54 34 3
54 35 2
54 36 1
54 37 1
54 38 5
54 39 5
54 40 5
54 41 1
54 42 3
54 43 5
54 44 5
54 45 2
54 46 3
54 47 4
54 48 3
54 49 4
54 50 1
54 51 4
54 52 5
54 53 2
55 0 4
55 1 5
55 2 2
55 3 3
55 4 4
55 5 4
55 6 3
55 7 3
55 8 5
55 9 1
55 10 2
55 11 2
55 12 2
55 13 3
55 14 1
55 15 4
55 16 4
55 17 3
55 18 2
55 19 3
55 20 4
55 21 5
55 22 2
55 23 1
55 24 1
55 25 1
55 26 2
55 27 4
55 28 5
55 29 3
55 30 4
55 31 4
55 32 5
55 33 1
55 34 3
55 35 3
55 36 1
55 37 3
55 38 4
55 39 1
55 40 3
55 41 1
55 42 3
55 43 3
55 44 2
55 45 4
55 46 3
55 47 3
55 48 5
55 49 1
55 50 3
55 51 1
55 52 2
55 53 5
55 54 4
56 0 2
56 1 3
56 2 2
56 3 3
56 4 2
56 5 4
56 6 1
56 7 1
56 8 1
56 9 3
56 10 2
56 11 3
56 12 4
56 13 1
56 14 3
56 15 1
56 16 1
56 17 2
56 18 4
56 19 1
56 20 4
56 21 1
56 22 5
56 23 5
56 24 1
56 25 2
56 26 3
56 27 5
56 28 2
56 29 5
56 30 1
56 31 1
56 32 2
56 33 5
56 34 1
56 35 2
56 36 3
56 37 1
56 38 4
56 39 2
56 40 2
56 41 5
56 42 4
56 43 2
56 44 3
56 45 5
56 46 5
56 47 5
56 48 1
56 49 4
56 50 2
56 51 1
56 52 1
56 53 5
56 54 5
56 55 3
57 0 4
57 1 2
57 2 1
57 3 5
57 4 2
57 5 4
57 6 5
57 7 3
57 8 2
57 9 5
57 10 2
57 11 1
57 12 2
57 13 3
57 14 4
57 15 3
57 16 3
57 17 5
57 18 4
57 19 3
57 20 5
57 21 1
57 22 3
57 23 1
57 24 2
57 25 4
57 26 2
57 27 3
57 28 5
57 29 2
57 30 5
57 31 5
57 32 2
57 33 5
57 34 1
57 35 1
57 36 5
57 37 1
57 38 3
57 39 3
57 40 1
57 41 1
57 42 5
57 43 5
57 44 3
57 45 4
57 46 3
57 47 4
57 48 4
57 49 3
57 50 3
57 51 1
57 52 4
57 53 3
57 54 4
57 55 5
57 56 3
58 0 3
58 1 2
58 2 5
58 3 2
58 4 4
58 5 1
58 6 1
58 7 5
58 8 4
58 9 4
58 10 2
58 11 5
58 12 1
58 13 4
58 14 2
58 15 4
58 16 1
58 17 1
58 18 5
58 19 4
58 20 3
58 21 5
58 22 2
58 23 5
58 24 2
58 25 4
58 26 2
58 27 1
58 28 5
58 29 1
58 30 3
58 31 3
58 32 4
58 33 2
58 34 5
58 35 2
58 36 3
58 37 4
58 38 1
58 39 2
58 40 4
58 41 1
58 42 5
58 43 5
58 44 5
58 45 3
58 46 2
58 47 4
58 48 2
58 49 5
58 50 2
58 51 3
58 52 3
58 53 4
58 54 2
58 55 4
58 56 4
58 57 1
59 0 3
59 1 3
59 2 2
59 3 1
59 4 4
59 5 1
59 6 4
59 7 2
59 8 2
59 9 2
59 10 5
59 11 5
59 12 1
59 13 5
59 14 3
59 15 4
59 16 5
59 17 4
59 18 2
59 19 3
59 20 2
59 21 3
59 22 3
59 23 3
59 24 5
59 25 1
59 26 3
59 27 2
59 28 4
59 29 5
59 30 4
59 31 4
59 32 4
59 33 3
59 34 1
59 35 1
59 36 3
59 37 2
59 38 5
59 39 4
59 40 2
59 41 1
59 42 1
59 43 3
59 44 3
59 45 5
59 46 3
59 47 3
59 48 3
59 49 2
59 50 1
59 51 1
59 52 1
59 53 5
59 54 2
59 55 3
59 56 4
59 57 5
59 58 2
60 0 3
60 1 5
60 2 1
60 3 5
60 4 3
60 5 4
60 6 2
60 7 3
60 8 4
60 9 1
60 10 3
60 11 2
60 12 2
60 13 4
60 14 1
60 15 3
60 16 2
60 17 2
60 18 4
60 19 1
60 20 3
60 21 4
60 22 1
60 23 1
60 24 2
60 25 5
60 26 2
60 27 1
60 28 5
60 29 5
60 30 3
60 31 2
60 32 3
60 33 2
60 34 5
60 35 3
60 36 4
60 37 2
60 38 2
60 39 1
60 40 4
60 41 1
60 42 4
60 43 1
60 44 4
60 45 1
60 46 2
60 47 4
60 48 3
60 49 4
60 50 4
60 51 4
60 52 3
60 53 1
60 54 4
60 55 4
60 56 4
60 57 5
60 58 2
60 59 1
61 0 2
61 1 3
61 2 5
61 3 3
61 4 5
61 5 5
61 6 1
61 7 2
61 8 4
61 9 1
61 10 5
61 11 2
61 12 4
61 13 3
61 14 1
61 15 2
61 16 5
61 17 5
61 18 1
61 19 1
61 20 3
61 21 2
61 22 4
61 23 1
61 24 4
61 25 3
61 26 1
61 27 2
61 28 4
61 29 4
61 30 1
61 31 4
61 32 1
61 33 4
61 34 4
61 35 4
61 36 4
61 37 5
61 38 4
61 39 3
61 40 4
61 41 5
61 42 2
61 43 3
61 44 4
61 45 4
61 46 4
61 47 4
61 48 3
61 49 4
61 50 5
61 51 1
61 52 3
61 53 5
61 54 5
61 55 1
61 56 5
61 57 4
61 58 5
61 59 3
61 60 1
62 0 3
62 1 2
62 2 1
62 3 3
62 4 1
62 5 1
62 6 3
62 7 5
62 8 5
62 9 3
62 10 1
62 11 3
62 12 5
62 13 5
62 14 4
62 15 4
62 16 4
62 17 1
62 18 5
62 19 3
62 20 1
62 21 1
62 22 4
62 23 1
62 24 2
62 25 3
62 26 4
62 27 4
62 28 4
62 29 1
62 30 1
62 31 5
62 32 2
62 33 2
62 34 4
62 35 1
62 36 5
62 37 1
62 38 1
62 39 2
62 40 3
62 41 2
62 42 3
62 43 4
62 44 5
62 45 4
62 46 5
62 47 1
62 48 3
62 49 2
62 50 5
62 51 3
62 52 2
62 53 4
62 54 3
62 55 2
62 56 5
62 57 1
62 58 5
62 59 5
62 60 3
62 61 5
63 0 5
63 1 4
63 2 5
63 3 1
63 4 1
63 5 2
63 6 1
63 7 5
63 8 4
63 9 1
63 10 4
63 11 4
63 12 4
63 13 4
63 14 1
63 15 5
63 16 4
63 17 3
63 18 4
63 19 2
63 20 2
63 21 2
63 22 5
63 23 2
63 24 4
63 25 2
63 26 3
63 27 3
63 28 3
63 29 2
63 30 5
63 31 2
63 32 5
63 33 5
63 34 1
63 35 1
63 36 5
63 37 4
63 38 2
63 39 4
63 40 2
63 41 1
63 42 2
63 43 2
63 44 2
63 45 4
63 46 4
63 47 3
63 48 5
63 49 3
63 50 4
63 51 5
63 52 5
63 53 1
63 54 5
63 55 3
63 56 3
63 57 4
63 58 3
63 59 3
63 60 2
63 61 5
63 62 4
64 0 2
64 1 2
64 2 4
64 3 2
64 4 1
64 5 4
64 6 2
64 7 1
64 8 1
64 9 4
64 10 1
64 11 1
64 12 1
64 13 4
64 14 1
64 15 4
64 16 1
64 17 5
64 18 3
64 19 1
64 20 1
64 21 2
64 22 1
64 23 4
64 24 2
64 25 3
64 26 2
64 27 1
64 28 1
64 29 5
64 30 4
64 31 5
64 32 4
64 33 3
64 34 3
64 35 4
64 36 5
64 37 1
64 38 1
64 39 2
64 40 2
64 41 5
64 42 5
64 43 2
64 44 4
64 45 4
64 46 1
64 47 4
64 48 1
64 49 1
64 50 4
64 51 2
64 52 4
64 53 4
64 54 2
64 55 4
64 56 5
64 57 1
64 58 1
64 59 4
64 60 5
64 61 5
64 62 4
64 63 1
65 0 1
65 1 5
65 2 5
65 3 1
65 4 1
65 5 2
65 6 5
65 7 4
65 8 4
65 9 2
65 10 5
65 11 3
65 12 1
65 13 1
65 14 3
65 15 3
65 16 3
65 17 1
65 18 3
65 19 5
65 20 1
65 21 3
65 22 4
65 23 3
65 24 5
65 25 1
65 26 4
65 27 3
65 28 1
65 29 1
65 30 5
65 31 1
65 32 3
65 33 5
65 34 4
65 35 2
65 36 3
65 37 3
65 38 5
65 39 3
65 40 1
65 41 5
65 42 1
65 43 5
65 44 1
65 45 2
65 46 1
65 47 4
65 48 2
65 49 4
65 50 3
65 51 2
65 52 1
65 53 1
65 54 2
65 55 5
65 56 2
65 57 2
65 58 5
65 59 2
65 60 3
65 61 5
65 62 2
65 63 4
65 64 5
66 0 2
66 1 5
66 2 4
66 3 5
66 4 1
66 5 5
66 6 5
66 7 4
66 8 5
66 9 4
66 10 4
66 11 2
66 12 2
66 13 1
66 14 4
66 15 5
66 16 5
66 17 4
66 18 1
66 19 2
66 20 4
66 21 5
66 22 2
66 23 3
66 24 5
66 25 3
66 26 1
66 27 4
66 28 4
66 29 1
66 30 5
66 31 1
66 32 3
66 33 3
66 34 4
66 35 4
66 36 4
66 37 4
66 38 2
66 39 1
66 40 4
66 41 3
66 42 2
66 43 3
66 44 3
66 45 2
66 46 2
66 47 2
66 48 5
66 49 5
66 50 3
66 51 2
66 52 1
66 53 2
66 54 5
66 55 2
66 56 5
66 57 5
66 58 2
66 59 5
66 60 4
66 61 3
66 62 5
66 63 5
66 64 2
66 65 5
67 0 4
67 1 5
67 2 2
67 3 1
67 4 5
67 5 5
67 6 4
67 7 3
67 8 2
67 9 3
67 10 1
67 11 4
67 12 1
67 13 5
67 14 4
67 15 3
67 16 2
67 17 3
67 18 1
67 19 3
67 20 1
67 21 4
67 22 3
67 23 1
67 24 4
67 25 4
67 26 5
67 27 3
67 28 3
67 29 3
67 30 5
67 31 4
67 32 3
67 33 1
67 34 3
67 35 3
67 36 2
67 37 4
67 38 5
67 39 2
67 40 3
67 41 1
67 42 3
67 43 1
67 44 2
67 45 2
67 46 5
67 47 5
67 48 3
67 49 5
67 50 2
67 51 4
67 52 3
67 53 5
67 54 5
67 55 2
67 56 3
67 57 4
67 58 3
67 59 5
67 60 1
67 61 4
67 62 5
67 63 2
67 64 3
67 65 4
67 66 3
68 0 3
68 1 3
68 2 1
68 3 1
68 4 4
68 5 2
68 6 3
68 7 4
68 8 4
68 9 5
68 10 3
68 11 5
68 12 3
68 13 4
68 14 3
68 15 2
68 16 3
68 17 2
68 18 5
68 19 4
68 20 2
68 21 5
68 22 1
68 23 2
68 24 5
68 25 4
68 26 2
68 27 1
68 28 2
68 29 3
68 30 2
68 31 4
68 32 5
68 33 3
68 34 3
68 35 2
68 36 3
68 37 3
68 38 4
68 39 5
68 40 2
68 41 2
68 42 4
68 43 4
68 44 3
68 45 5
68 46 4
68 47 4
68 48 3
68 49 2
68 50 4
68 51 2
68 52 1
68 53 5
68 54 5
68 55 1
68 56 4
68 57 3
68 58 3
68 59 4
68 60 2
68 61 2
68 62 3
68 63 1
68 64 3
68 65 3
68 66 2
68 67 5
69 0 5
69 1 1
69 2 1
69 3 5
69 4 3
69 5 3
69 6 5
69 7 3
69 8 2
69 9 3
69 10 1
69 11 3
69 12 1
69 13 3
69 14 1
69 15 1
69 16 1
69 17 5
69 18 4
69 19 5
69 20 1
69 21 1
69 22 3
69 23 2
69 24 4
69 25 1
69 26 2
69 27 4
69 28 2
69 29 2
69 30 1
69 31 2
69 32 5
69 33 3
69 34 5
69 35 5
69 36 4
69 37 2
69 38 3
69 39 4
69 40 2
69 41 1
69 42 5
69 43 2
69 44 4
69 45 3
69 46 2
69 47 5
69 48 5
69 49 1
69 50 3
69 51 4
69 52 4
69 53 2
69 54 4
69 55 2
69 56 2
69 57 4
69 58 2
69 59 4
69 60 1
69 61 5
69 62 2
69 63 2
69 64 2
69 65 5
69 66 3
69 67 3
69 68 4
70 0 5
70 1 5
70 2 5
70 3 4
70 4 3
70 5 4
70 6 4
70 7 5
70 8 3
70 9 5
70 10 1
70 11 1
70 12 1
70 13 1
70 14 2
70 15 5
70 16 3
70 17 3
70 18 2
70 19 1
70 20 4
70 21 3
70 22 1
70 23 5
70 24 4
70 25 1
70 26 4
70 27 4
70 28 1
70 29 2
70 30 3
70 31 5
70 32 1
70 33 3
70 34 2
70 35 1
70 36 3
70 37 3
70 38 4
70 39 3
70 40 1
70 41 5
70 42 3
70 43 3
70 44 1
70 45 3
70 46 4
70 47 4
70 48 1
70 49 4
70 50 3
70 51 5
70 52 4
70 53 5
70 54 3
70 55 4
70 56 3
70 57 5
70 58 3
70 59 4
70 60 1
70 61 5
70 62 1
70 63 3
70 64 3
70 65 5
70 66 5
70 67 1
70 68 4
70 69 2
71 0 3
71 1 4
71 2 1
71 3 4
71 4 5
71 5 1
71 6 2
71 7 3
71 8 4
71 9 2
71 10 1
71 11 3
71 12 4
71 13 1
71 14 2
71 15 4
71 16 4
71 17 2
71 18 2
71 19 4
71 20 3
71 21 3
71 22 2
71 23 5
71 24 3
71 25 1
71 26 4
71 27 2
71 28 5
71 29 3
71 30 1
71 31 1
71 32 2
71 33 1
71 34 5
71 35 2
71 36 4
71 37 3
71 38 5
71 39 4
71 40 5
71 41 1
71 42 4
71 43 1
71 44 5
71 45 1
71 46 4
71 47 2
71 48 5
71 49 2
71 50 4
71 51 3
71 52 4
71 53 3
71 54 1
71 55 3
71 56 2
71 57 5
71 58 3
71 59 4
71 60 2
71 61 5
71 62 3
71 63 5
71 64 1
71 65 2
71 66 3
71 67 5
71 68 5
71 69 2
71 70 2
72 0 4
72 1 2
72 2 2
72 3 1
72 4 5
72 5 3
72 6 3
72 7 3
72 8 3
72 9 5
72 10 2
72 11 3
72 12 3
72 13 3
72 14 2
72 15 4
72 16 3
72 17 1
72 18 2
72 19 1
72 20 2
72 21 3
72 22 1
72 23 5
72 24 5
72 25 5
72 26 4
72 27 4
72 28 1
72 29 5
72 30 4
72 31 2
72 32 4
72 33 3
72 34 3
72 35 2
72 36 5
72 37 5
72 38 3
72 39 5
72 40 5
72 41 5
72 42 2
72 43 4
72 44 3
72 45 2
72 46 3
72 47 3
72 48 4
72 49 4
72 50 2
72 51 4
72 52 5
72 53 4
72 54 5
72 55 1
72 56 1
72 57 1
72 58 5
72 59 4
72 60 1
72 61 2
72 62 4
72 63 5
72 64 4
72 65 4
72 66 4
72 67 2
72 68 1
72 69 4
72 70 5
72 71 2
73 0 4
73 1 5
73 2 4
73 3 5
73 4 1
73 5 5
73 6 1
73 7 5
73 8 2
73 9 1
73 10 5
73 11 3
73 12 3
73 13 2
73 14 2
73 15 1
73 16 2
73 17 2
73 18 5
73 19 2
73 20 1
73 21 1
73 22 1
73 23 1
73 24 1
73 25 4
73 26 4
73 27 2
73 28 1
73 29 2
73 30 2
73 31 4
73 32 1
73 33 1
73 34 4
73 35 3
73 36 5
73 37 5
73 38 5
73 39 4
73 40 1
73 41 3
73 42 5
73 43 2
73 44 3
73 45 2
73 46 4
73 47 2
73 48 1
73 49 4
73 50 2
73 51 3
73 52 1
73 53 4
73 54 5
73 55 3
73 56 3
73 57 5
73 58 4
73 59 5
73 60 1
73 61 2
73 62 5
73 63 1
73 64 5
73 65 3
73 66 2
73 67 4
73 68 3
73 69 4
73 70 1
73 71 2
73 72 4
74 0 1
74 1 1
74 2 4
74 3 5
74 4 1
74 5 3
74 6 1
74 7 5
74 8 1
74 9 1
74 10 3
74 11 4
74 12 3
74 13 4
74 14 2
74 15 2
74 16 1
74 17 2
74 18 5
74 19 4
74 20 4
74 21 4
74 22 3
74 23 5
74 24 2
74 25 4
74 26 5
74 27 5
74 28 4
74 29 2
74 30 4
74 31 2
74 32 2
74 33 3
74 34 4
74 35 2
74 36 1
74 37 2
74 38 5
74 39 2
74 40 2
74 41 3
74 42 3
74 43 1
74 44 1
74 45 3
74 46 2
74 47 2
74 48 5
74 49 5
74 50 1
74 51 3
74 52 1
74 53 1
74 54 4
74 55 4
74 56 3
74 57 5
74 58 4
74 59 2
74 60 1
74 61 3
74 62 4
74 63 4
74 64 4
74 65 1
74 66 2
74 67 4
74 68 1
74 69 5
74 70 4
74 71 3
74 72 5
74 73 2
